DATASET = "thpack4";
INSTANCE = "080";

WIDTH = 233;
HEIGHT = 220;
LENGTH = 587;

NO_OF_SHAPES = 10;
size = [|
  78,59,54 |
  120,52,20 |
  100,67,54 |
  91,59,37 |
  112,57,56 |
  88,46,34 |
  108,78,53 |
  100,48,29 |
  89,88,21 |
  90,40,21 |
|];

verticality = [|
  1,1,1 |
  0,0,1 |
  1,1,1 |
  0,1,1 |
  0,1,1 |
  0,1,1 |
  0,1,1 |
  0,1,1 |
  0,0,1 |
  0,1,1 |
|];

box_count = [
  13,
  12,
  10,
  19,
  16,
  16,
  13,
  9,
  12,
  12,
];
